NAME : single
TYPE : ATSP
DIMENSION : 13
EDGE_WEIGHT_TYPE : EXPLICIT
EDGE_WEIGHT_FORMAT : FULL_MATRIX
EDGE_WEIGHT_SECTION
0 142 276 0 356 455 303 366 426 441 493 220 380 
199951 0 327 141 293 388 244 408 414 462 561 264 463 
199959 327 0 275 300 359 397 233 264 274 312 107 297 
199940 141 275 0 356 455 303 366 426 441 493 220 380 
199950 293 300 356 0 114 459 262 170 285 439 350 586 
199944 388 359 455 114 0 491 320 200 325 484 383 657 
199915 244 397 303 459 491 0 581 561 603 705 291 510 
199941 408 233 366 262 320 581 0 135 88 180 328 437 
199947 414 264 426 170 200 561 135 0 132 289 342 548 
199934 462 274 441 285 325 603 88 132 0 159 377 463 
199923 561 312 493 439 484 705 180 289 159 0 419 413 
199949 264 107 220 350 383 291 328 342 377 419 0 299 
199907 463 297 380 586 657 510 437 548 463 413 299 0 
EOF